Step 2/6S/25 7 15 29 27 37/Cluster 5/VRPwTW.sol
Total_Cost = 1649.5

X :=
Kazan_ASHANy  MoscowDepot   1   1
Kazan_Zelgros Kazan_ASHANy  1   1
MoscowDepot   Kazan_Zelgros 1   1
;

Served :=
Kazan_ASHANy  1   1
Kazan_Zelgros 1   1
;

ATime :=
Kazan_ASHANy  1   13.47
Kazan_Zelgros 1   13
MoscowDepot   1   24.5
;

DTime :=
Kazan_ASHANy  1   13.67
Kazan_Zelgros 1   13.2
MoscowDepot   1    2.12
;

RouteDuration [*] :=
1  21.98
;

WTime :=
Kazan_ASHANy  1   0
Kazan_Zelgros 1   0
MoscowDepot   1   0
;
